5
    999999       633       257        91       412      
       633    999999       390       661       227      
       257       390    999999       228       169     
        91       661       228    999999       383  
       412       227       169       383    999999    
